
Gurobi 9.5.2 (mac64[arm]) logging started Fri Jan  6 21:10:11 2023

Set parameter LogFile to value "./ccga_results/2023-01-06 21-10-10-302/MSP_TimeStampConvert_gurobi_log.txt"

Gurobi 9.5.2 (mac64[arm]) logging started Fri Jan  6 21:10:11 2023

Set parameter LogFile to value "./ccga_results/2023-01-06 21-10-10-302/MSP_TimeStampConvert_gurobi_log.txt"
Set parameter TimeLimit to value 180
Gurobi Optimizer version 9.5.2 build v9.5.2rc0 (mac64[arm])
Thread count: 8 physical cores, 8 logical processors, using up to 8 threads
Optimize a model with 120 rows, 97 columns and 282 nonzeros
Model fingerprint: 0xa81ce8c1
Variable types: 25 continuous, 72 integer (72 binary)
Coefficient statistics:
  Matrix range     [1e+00, 1e+00]
  Objective range  [1e+00, 1e+00]
  Bounds range     [5e+01, 5e+01]
  RHS range        [1e+00, 1e+00]
Found heuristic solution: objective -0.0000000
Found heuristic solution: objective 50.0000000
Presolve removed 120 rows and 97 columns
Presolve time: 0.00s
Presolve: All rows and columns removed

Explored 0 nodes (0 simplex iterations) in 0.00 seconds (0.00 work units)
Thread count was 1 (of 8 available processors)

Solution count 2: 50 -0 

Optimal solution found (tolerance 1.00e-03)
Best objective 5.000000000000e+01, best bound 5.000000000000e+01, gap 0.0000%

User-callback calls 352, time in user-callback 0.00 sec
Gurobi Optimizer version 9.5.2 build v9.5.2rc0 (mac64[arm])
Thread count: 8 physical cores, 8 logical processors, using up to 8 threads
Optimize a model with 557 rows, 289 columns and 2284 nonzeros
Model fingerprint: 0x8f5764d2
Variable types: 205 continuous, 84 integer (84 binary)
Coefficient statistics:
  Matrix range     [7e-03, 8e+02]
  Objective range  [1e+00, 1e+00]
  Bounds range     [5e+01, 5e+01]
  RHS range        [1e+00, 1e+08]

MIP start from previous solve did not produce a new incumbent solution

Presolve removed 199 rows and 130 columns
Presolve time: 0.00s
Presolved: 358 rows, 159 columns, 1379 nonzeros
Variable types: 89 continuous, 70 integer (70 binary)
Found heuristic solution: objective 34.7117052
Found heuristic solution: objective 37.0873939
Found heuristic solution: objective 37.1945931

Root relaxation: objective 5.000000e+01, 132 iterations, 0.00 seconds (0.00 work units)

    Nodes    |    Current Node    |     Objective Bounds      |     Work
 Expl Unexpl |  Obj  Depth IntInf | Incumbent    BestBd   Gap | It/Node Time

     0     0   50.00000    0    9   37.19459   50.00000  34.4%     -    0s
H    0     0                      50.0000000   50.00000  0.00%     -    0s
     0     0   50.00000    0    9   50.00000   50.00000  0.00%     -    0s

Explored 1 nodes (132 simplex iterations) in 0.01 seconds (0.01 work units)
Thread count was 8 (of 8 available processors)

Solution count 4: 50 37.1946 37.0874 34.7117 

Optimal solution found (tolerance 1.00e-03)
Best objective 5.000000000000e+01, best bound 5.000000000000e+01, gap 0.0000%

User-callback calls 320, time in user-callback 0.00 sec
Gurobi Optimizer version 9.5.2 build v9.5.2rc0 (mac64[arm])
Thread count: 8 physical cores, 8 logical processors, using up to 8 threads
Optimize a model with 994 rows, 481 columns and 4286 nonzeros
Model fingerprint: 0x51c7ecc0
Variable types: 385 continuous, 96 integer (96 binary)
Coefficient statistics:
  Matrix range     [7e-03, 8e+02]
  Objective range  [1e+00, 1e+00]
  Bounds range     [5e+01, 5e+01]
  RHS range        [1e+00, 1e+08]

MIP start from previous solve did not produce a new incumbent solution

Presolve removed 372 rows and 248 columns
Presolve time: 0.01s
Presolved: 622 rows, 233 columns, 2554 nonzeros
Variable types: 153 continuous, 80 integer (80 binary)
Found heuristic solution: objective 22.5327287
Found heuristic solution: objective 25.1546780
Found heuristic solution: objective 27.3751441

Root relaxation: objective 5.000000e+01, 299 iterations, 0.00 seconds (0.00 work units)

    Nodes    |    Current Node    |     Objective Bounds      |     Work
 Expl Unexpl |  Obj  Depth IntInf | Incumbent    BestBd   Gap | It/Node Time

H    0     0                      50.0000000   50.00000  0.00%     -    0s
     0     0   50.00000    0    2   50.00000   50.00000  0.00%     -    0s

Explored 1 nodes (441 simplex iterations) in 0.02 seconds (0.02 work units)
Thread count was 8 (of 8 available processors)

Solution count 4: 50 27.3751 25.1547 22.5327 

Optimal solution found (tolerance 1.00e-03)
Best objective 5.000000000000e+01, best bound 5.000000000000e+01, gap 0.0000%

User-callback calls 325, time in user-callback 0.00 sec
Gurobi Optimizer version 9.5.2 build v9.5.2rc0 (mac64[arm])
Thread count: 8 physical cores, 8 logical processors, using up to 8 threads
Optimize a model with 1431 rows, 673 columns and 6288 nonzeros
Model fingerprint: 0xf34ce601
Variable types: 565 continuous, 108 integer (108 binary)
Coefficient statistics:
  Matrix range     [7e-03, 8e+02]
  Objective range  [1e+00, 1e+00]
  Bounds range     [5e+01, 5e+01]
  RHS range        [1e+00, 1e+08]

MIP start from previous solve did not produce a new incumbent solution

Presolve removed 545 rows and 366 columns
Presolve time: 0.01s
Presolved: 886 rows, 307 columns, 3729 nonzeros
Variable types: 217 continuous, 90 integer (90 binary)
Found heuristic solution: objective 22.5327287
Found heuristic solution: objective 22.9823364
Found heuristic solution: objective 26.6720381

Root relaxation: objective 4.205020e+01, 473 iterations, 0.01 seconds (0.01 work units)

    Nodes    |    Current Node    |     Objective Bounds      |     Work
 Expl Unexpl |  Obj  Depth IntInf | Incumbent    BestBd   Gap | It/Node Time

     0     0   42.05020    0   15   26.67204   42.05020  57.7%     -    0s
H    0     0                      31.2500000   42.05020  34.6%     -    0s
     0     0   37.92005    0   15   31.25000   37.92005  21.3%     -    0s
     0     0   37.15475    0   15   31.25000   37.15475  18.9%     -    0s
     0     0   36.32829    0   10   31.25000   36.32829  16.3%     -    0s
     0     0   36.29734    0   13   31.25000   36.29734  16.2%     -    0s
     0     0   36.28142    0   13   31.25000   36.28142  16.1%     -    0s
     0     0   36.27103    0   15   31.25000   36.27103  16.1%     -    0s
     0     0   36.27103    0   15   31.25000   36.27103  16.1%     -    0s
     0     0   32.40853    0   13   31.25000   32.40853  3.71%     -    0s
     0     0   31.57166    0   13   31.25000   31.57166  1.03%     -    0s
     0     0   31.57166    0   13   31.25000   31.57166  1.03%     -    0s
H    0     0                      31.5716619   31.57166  0.00%     -    0s

Cutting planes:
  Gomory: 1
  Cover: 1
  Implied bound: 6
  Clique: 8
  MIR: 13
  Flow cover: 31
  Relax-and-lift: 11

Explored 1 nodes (701 simplex iterations) in 0.11 seconds (0.07 work units)
Thread count was 8 (of 8 available processors)

Solution count 5: 31.5717 31.25 26.672 ... 22.5327

Optimal solution found (tolerance 1.00e-03)
Best objective 3.157166185686e+01, best bound 3.157166185686e+01, gap 0.0000%

User-callback calls 426, time in user-callback 0.00 sec
Gurobi Optimizer version 9.5.2 build v9.5.2rc0 (mac64[arm])
Thread count: 8 physical cores, 8 logical processors, using up to 8 threads
Optimize a model with 1868 rows, 865 columns and 8290 nonzeros
Model fingerprint: 0x68239d53
Variable types: 745 continuous, 120 integer (120 binary)
Coefficient statistics:
  Matrix range     [7e-03, 8e+02]
  Objective range  [1e+00, 1e+00]
  Bounds range     [5e+01, 5e+01]
  RHS range        [1e+00, 1e+08]

MIP start from previous solve produced solution with objective 13.9062 (0.01s)
Loaded MIP start from previous solve with objective 13.9062

Presolve removed 763 rows and 494 columns
Presolve time: 0.01s
Presolved: 1105 rows, 371 columns, 4670 nonzeros
Variable types: 281 continuous, 90 integer (90 binary)

Root relaxation: objective 4.536503e+01, 733 iterations, 0.01 seconds (0.02 work units)

    Nodes    |    Current Node    |     Objective Bounds      |     Work
 Expl Unexpl |  Obj  Depth IntInf | Incumbent    BestBd   Gap | It/Node Time

     0     0   45.36503    0   15   13.90621   45.36503   226%     -    0s
H    0     0                      20.0000000   45.36503   127%     -    0s
     0     0   41.01764    0   23   20.00000   41.01764   105%     -    0s
H    0     0                      31.2500000   41.01764  31.3%     -    0s
     0     0   36.25162    0   21   31.25000   36.25162  16.0%     -    0s
     0     0   36.03980    0   23   31.25000   36.03980  15.3%     -    0s
     0     0   31.57166    0   20   31.25000   31.57166  1.03%     -    0s
     0     0   31.57166    0   20   31.25000   31.57166  1.03%     -    0s
     0     0   31.57166    0   20   31.25000   31.57166  1.03%     -    0s
H    0     0                      31.5716619   31.57166  0.00%     -    0s

Cutting planes:
  Cover: 1
  Implied bound: 8
  MIR: 9
  Flow cover: 42
  Relax-and-lift: 4

Explored 1 nodes (1569 simplex iterations) in 0.12 seconds (0.12 work units)
Thread count was 8 (of 8 available processors)

Solution count 4: 31.5717 31.25 20 13.9062 

Optimal solution found (tolerance 1.00e-03)
Best objective 3.157166185686e+01, best bound 3.157166185686e+01, gap 0.0000%

User-callback calls 455, time in user-callback 0.00 sec
